32      3       
14      11      20      
0       0       0       0       1       2       
5       0       1       0       1       3       
9       0       0       1       1       4       
8       0       1       2       1       5       
10      0       1       0       1       6       
7       0       1       13      2       7       14      
7       1       9       0       1       8       
3       11      0       0       2       9       11      
7       3       0       0       2       10      16      
8       6       1       0       2       12      19      
7       4       10      0       2       15      16      
6       0       1       7       1       13      
1       0       0       6       1       15      
5       1       0       0       1       16      
8       0       1       1       1       17      
8       1       0       2       1       17      
10      0       3       0       1       18      
9       0       0       7       1       20      
10      1       1       0       1       20      
1       1       0       1       1       21      
3       1       0       1       1       22      
1       0       3       0       2       23      26      
3       0       0       4       2       24      28      
5       0       0       11      1       25      
9       1       0       0       1       27      
5       0       1       1       1       28      
10      6       0       9       1       29      
4       2       0       0       1       29      
1       0       1       0       1       30      
6       5       0       9       1       31      
7       9       6       0       1       32      
0       0       0       0       0       
